NAME          
ROWS
 N  OBJ
 L  c1
 L  c2
COLUMNS
    MARKER    'MARKER'                 'INTORG'
    x[1]      c1        9
    x[1]      c2        728
    x[1]      OBJ       -763
    x[2]      c1        806
    x[2]      c2        492
    x[2]      OBJ       -694
    x[3]      c1        342
    x[3]      c2        299
    x[3]      OBJ       -131
    x[4]      c1        409
    x[4]      c2        550
    x[4]      OBJ       -184
    x[5]      c1        652
    x[5]      c2        12
    x[5]      OBJ       -662
    x[6]      c1        499
    x[6]      c2        324
    x[6]      OBJ       -597
    x[7]      c1        202
    x[7]      c2        119
    x[7]      OBJ       -283
    x[8]      c1        203
    x[8]      c2        414
    x[8]      OBJ       -981
    x[9]      c1        852
    x[9]      c2        157
    x[9]      OBJ       -733
    x[10]     c1        997
    x[10]     c2        687
    x[10]     OBJ       -103
    x[11]     c1        503
    x[11]     c2        828
    x[11]     OBJ       -137
    x[12]     c1        704
    x[12]     c2        379
    x[12]     OBJ       -475
    x[13]     c1        267
    x[13]     c2        511
    x[13]     OBJ       -301
    x[14]     c1        377
    x[14]     c2        323
    x[14]     OBJ       -179
    x[15]     c1        537
    x[15]     c2        517
    x[15]     OBJ       -760
    x[16]     c1        227
    x[16]     c2        201
    x[16]     OBJ       -710
    x[17]     c1        76
    x[17]     c2        263
    x[17]     OBJ       -960
    x[18]     c1        823
    x[18]     c2        993
    x[18]     OBJ       -946
    x[19]     c1        835
    x[19]     c2        527
    x[19]     OBJ       -766
    x[20]     c1        18
    x[20]     c2        235
    x[20]     OBJ       -957
RHS
    rhs       c1        4669
    rhs       c2        4280
RANGES
BOUNDS
 BV bounds    x[1]
 BV bounds    x[2]
 BV bounds    x[3]
 BV bounds    x[4]
 BV bounds    x[5]
 BV bounds    x[6]
 BV bounds    x[7]
 BV bounds    x[8]
 BV bounds    x[9]
 BV bounds    x[10]
 BV bounds    x[11]
 BV bounds    x[12]
 BV bounds    x[13]
 BV bounds    x[14]
 BV bounds    x[15]
 BV bounds    x[16]
 BV bounds    x[17]
 BV bounds    x[18]
 BV bounds    x[19]
 BV bounds    x[20]
ENDATA
